NAME: CMT2_4
TYPE: CVRP
COMMENT: 835.26 - Cluster Nr.4
DIMENSION: 8
CAPACITY: 140
EDGE_WEIGHT_TYPE: EUC_2D
NODE_COORD_TYPE: TWOD_COORDS
NODE_COORD_SECTION: 
6 29 39
4 45 42
7 33 44
2 41 46
1 40 40
3 35 51
8 30 50
5 35 60
DEPOT_SECTION: 
1
-1
DEMAND_SECTION: 
8 33
4 30
6 12
1 0
3 16
2 18
5 1
7 20
EOF
